
Gurobi 12.0.0 (mac64[arm]) logging started Tue Feb 17 09:37:38 2026

Set parameter LogFile to value "/Users/lennardhansmann/Desktop/TNLAP/Instances/sol/H30P150A1(A).log"
Set parameter Threads to value 1
Gurobi Optimizer version 12.0.0 build v12.0.0rc1 (mac64[arm] - Darwin 25.2.0 25C56)

CPU model: Apple M3 Pro
Thread count: 11 physical cores, 11 logical processors, using up to 1 threads

Non-default parameters:
TimeLimit  3600
Threads  1

Optimize a model with 17608 rows, 15341 columns and 139841 nonzeros
Model fingerprint: 0xbff1f9b8
Variable types: 4167 continuous, 11174 integer (11174 binary)
Coefficient statistics:
  Matrix range     [2e-03, 2e+04]
  Objective range  [1e+00, 1e+00]
  Bounds range     [1e+00, 2e+04]
  RHS range        [5e-01, 2e+04]
Presolve removed 11759 rows and 10016 columns
Presolve time: 0.58s
Presolved: 5849 rows, 5325 columns, 34495 nonzeros
Variable types: 333 continuous, 4992 integer (4124 binary)
Found heuristic solution: objective 1.6060122

Root relaxation: objective 1.739906e+01, 6250 iterations, 0.16 seconds (0.24 work units)

    Nodes    |    Current Node    |     Objective Bounds      |     Work
 Expl Unexpl |  Obj  Depth IntInf | Incumbent    BestBd   Gap | It/Node Time

     0     0   17.39906    0  596    1.60601   17.39906   983%     -    0s
     0     0   17.35354    0  589    1.60601   17.35354   981%     -    0s
H    0     0                      10.3153281   17.35354  68.2%     -    0s
H    0     0                      10.7117051   17.35354  62.0%     -    0s
H    0     0                      10.7523734   17.35354  61.4%     -    0s
H    0     0                      10.7549132   17.35354  61.4%     -    0s
H    0     0                      10.7625405   17.35354  61.2%     -    0s
H    0     0                      11.9752158   17.35354  44.9%     -    0s
H    0     0                      12.0197210   17.35354  44.4%     -    0s
H    0     0                      12.1213918   17.35354  43.2%     -    0s
H    0     0                      12.1547252   17.35354  42.8%     -    0s
H    0     0                      12.1888804   17.35354  42.4%     -    0s
H    0     0                      12.3132401   17.35354  40.9%     -    0s
H    0     0                      12.3688792   17.35354  40.3%     -    0s
H    0     0                      12.3799569   17.35354  40.2%     -    0s
H    0     0                      12.4086876   17.35354  39.8%     -    0s
     0     0   15.45856    0  530   12.40869   15.45856  24.6%     -    1s
H    0     0                      12.5576833   15.45814  23.1%     -    1s
H    0     0                      12.6031833   15.45814  22.7%     -    1s
     0     0   15.31016    0  592   12.60318   15.31016  21.5%     -    1s
     0     0   15.30607    0  566   12.60318   15.30607  21.4%     -    1s
     0     0   15.30393    0  564   12.60318   15.30393  21.4%     -    1s
     0     0   14.50719    0  655   12.60318   14.50719  15.1%     -    1s
H    0     0                      12.6131833   14.50653  15.0%     -    1s
H    0     0                      12.6676693   14.50653  14.5%     -    1s
H    0     0                      12.6947815   14.50653  14.3%     -    1s
H    0     0                      12.7558021   14.50653  13.7%     -    1s
     0     0   14.39862    0  645   12.75580   14.39862  12.9%     -    1s
     0     0   14.39483    0  628   12.75580   14.39483  12.8%     -    1s
     0     0   13.88010    0  638   12.75580   13.88010  8.81%     -    1s
H    0     0                      12.8450576   13.87998  8.06%     -    1s
     0     0   13.83651    0  631   12.84506   13.83651  7.72%     -    1s
     0     0   13.83473    0  515   12.84506   13.83473  7.70%     -    1s
     0     0   13.40569    0  394   12.84506   13.40569  4.36%     -    1s
H    0     0                      12.9063301   13.40555  3.87%     -    1s
     0     0   13.39566    0  423   12.90633   13.39566  3.79%     -    1s
     0     0   13.39561    0  389   12.90633   13.39561  3.79%     -    1s
     0     0   13.32877    0  346   12.90633   13.32877  3.27%     -    1s
H    0     0                      12.9378379   13.32793  3.02%     -    1s
     0     0   13.32703    0  412   12.93784   13.32703  3.01%     -    1s
     0     0   13.26819    0  524   12.93784   13.26819  2.55%     -    1s
     0     0   13.26695    0  421   12.93784   13.26695  2.54%     -    1s
     0     0   13.21683    0  381   12.93784   13.21683  2.16%     -    1s
H    0     0                      13.0289947   13.21618  1.44%     -    1s
H    0     0                      13.0389947   13.21618  1.36%     -    2s
     0     0   13.20249    0  167   13.03899   13.20249  1.25%     -    2s
     0     0   13.18944    0  218   13.03899   13.18944  1.15%     -    2s
     0     0   13.18818    0  426   13.03899   13.18818  1.14%     -    2s
     0     0   13.18507    0  304   13.03899   13.18507  1.12%     -    2s
H    0     0                      13.1531229   13.18483  0.24%     -    2s
     0     0   13.18483    0  273   13.15312   13.18483  0.24%     -    2s
     0     0   13.18483    0  271   13.15312   13.18483  0.24%     -    2s
     0     0   13.18483    0  155   13.15312   13.18483  0.24%     -    2s
     0     0   13.18483    0  157   13.15312   13.18483  0.24%     -    2s
     0     0   13.18483    0  162   13.15312   13.18483  0.24%     -    2s
     0     0   13.18483    0  237   13.15312   13.18483  0.24%     -    2s
     0     0   13.18483    0  159   13.15312   13.18483  0.24%     -    2s
     0     0   13.18483    0  212   13.15312   13.18483  0.24%     -    2s
     0     0   13.18483    0  212   13.15312   13.18483  0.24%     -    2s
     0     0   13.18483    0  257   13.15312   13.18483  0.24%     -    2s
     0     0   13.18483    0  148   13.15312   13.18483  0.24%     -    2s
     0     0   13.18483    0  164   13.15312   13.18483  0.24%     -    2s
     0     0   13.18483    0  136   13.15312   13.18483  0.24%     -    2s
     0     0   13.18483    0  180   13.15312   13.18483  0.24%     -    2s
     0     0   13.18483    0  180   13.15312   13.18483  0.24%     -    2s
     0     0   13.18483    0  181   13.15312   13.18483  0.24%     -    2s
H    0     0                      13.1785708   13.18329  0.04%     -    2s
*    0     0               0      13.1810708   13.18107  0.00%     -    2s

Cutting planes:
  Learned: 6
  Gomory: 8
  Cover: 38
  Implied bound: 55
  Clique: 18
  MIR: 21
  StrongCG: 1
  Flow cover: 11
  GUB cover: 6
  Zero half: 8
  RLT: 14
  Relax-and-lift: 8
  BQP: 4

Explored 1 nodes (16194 simplex iterations) in 2.50 seconds (3.88 work units)
Thread count was 1 (of 11 available processors)

Solution count 10: 13.1811 13.1786 13.1531 ... 12.8451

Optimal solution found (tolerance 1.00e-04)
Best objective 1.318107075571e+01, best bound 1.318107075571e+01, gap 0.0000%
